p cnf 386 460
-2 13 -8 21 22 0
-2 13 -8 21 -22 0
-2 13 -8 -21 23 0
-2 13 -8 -21 -23 0
5 -3 12 24 25 0
5 -3 12 24 -25 0
5 -3 12 -24 26 0
5 -3 12 -24 -26 0
-15 6 13 27 28 0
-15 6 13 27 -28 0
-15 6 13 -27 29 0
-15 6 13 -27 -29 0
18 -4 3 30 31 0
18 -4 3 30 -31 0
18 -4 3 -30 32 0
18 -4 3 -30 -32 0
-9 15 -7 33 34 0
-9 15 -7 33 -34 0
-9 15 -7 -33 35 0
-9 15 -7 -33 -35 0
17 -16 -1 36 37 0
17 -16 -1 36 -37 0
17 -16 -1 -36 38 0
17 -16 -1 -36 -38 0
12 3 -17 39 40 0
12 3 -17 39 -40 0
12 3 -17 -39 41 0
12 3 -17 -39 -41 0
-8 -19 20 42 43 0
-8 -19 20 42 -43 0
-8 -19 20 -42 44 0
-8 -19 20 -42 -44 0
-9 -12 7 45 46 0
-9 -12 7 45 -46 0
-9 -12 7 -45 47 0
-9 -12 7 -45 -47 0
15 8 1 48 49 0
15 8 1 48 -49 0
15 8 1 -48 50 0
15 8 1 -48 -50 0
-14 20 -7 51 52 0
-14 20 -7 51 -52 0
-14 20 -7 -51 53 0
-14 20 -7 -51 -53 0
-2 4 6 54 55 0
-2 4 6 54 -55 0
-2 4 6 -54 56 0
-2 4 6 -54 -56 0
-19 9 2 57 58 0
-19 9 2 57 -58 0
-19 9 2 -57 59 0
-19 9 2 -57 -59 0
9 -10 -14 60 61 0
9 -10 -14 60 -61 0
9 -10 -14 -60 62 0
9 -10 -14 -60 -62 0
-3 -1 -17 63 64 0
-3 -1 -17 63 -64 0
-3 -1 -17 -63 65 0
-3 -1 -17 -63 -65 0
-10 6 -15 66 67 0
-10 6 -15 66 -67 0
-10 6 -15 -66 68 0
-10 6 -15 -66 -68 0
-2 6 -20 69 70 0
-2 6 -20 69 -70 0
-2 6 -20 -69 71 0
-2 6 -20 -69 -71 0
4 -5 20 72 73 0
4 -5 20 72 -73 0
4 -5 20 -72 74 0
4 -5 20 -72 -74 0
-9 5 -1 75 76 0
-9 5 -1 75 -76 0
-9 5 -1 -75 77 0
-9 5 -1 -75 -77 0
-14 2 10 78 79 0
-14 2 10 78 -79 0
-14 2 10 -78 80 0
-14 2 10 -78 -80 0
-20 7 -1 81 82 0
-20 7 -1 81 -82 0
-20 7 -1 -81 83 0
-20 7 -1 -81 -83 0
19 -16 -10 84 85 0
19 -16 -10 84 -85 0
19 -16 -10 -84 86 0
19 -16 -10 -84 -86 0
10 15 14 87 88 0
10 15 14 87 -88 0
10 15 14 -87 89 0
10 15 14 -87 -89 0
9 -3 13 90 91 0
9 -3 13 90 -91 0
9 -3 13 -90 92 0
9 -3 13 -90 -92 0
-11 -6 -17 93 94 0
-11 -6 -17 93 -94 0
-11 -6 -17 -93 95 0
-11 -6 -17 -93 -95 0
18 11 -14 96 97 0
18 11 -14 96 -97 0
18 11 -14 -96 98 0
18 11 -14 -96 -98 0
-3 6 11 99 100 0
-3 6 11 99 -100 0
-3 6 11 -99 101 0
-3 6 11 -99 -101 0
-5 19 2 102 103 0
-5 19 2 102 -103 0
-5 19 2 -102 104 0
-5 19 2 -102 -104 0
-20 11 6 105 106 0
-20 11 6 105 -106 0
-20 11 6 -105 107 0
-20 11 6 -105 -107 0
-19 11 -7 108 109 0
-19 11 -7 108 -109 0
-19 11 -7 -108 110 0
-19 11 -7 -108 -110 0
12 20 -8 111 112 0
12 20 -8 111 -112 0
12 20 -8 -111 113 0
12 20 -8 -111 -113 0
18 9 20 114 115 0
18 9 20 114 -115 0
18 9 20 -114 116 0
18 9 20 -114 -116 0
-16 5 -9 117 118 0
-16 5 -9 117 -118 0
-16 5 -9 -117 119 0
-16 5 -9 -117 -119 0
-1 2 7 120 121 0
-1 2 7 120 -121 0
-1 2 7 -120 122 0
-1 2 7 -120 -122 0
12 -13 -15 123 124 0
12 -13 -15 123 -124 0
12 -13 -15 -123 125 0
12 -13 -15 -123 -125 0
18 15 -20 126 127 0
18 15 -20 126 -127 0
18 15 -20 -126 128 0
18 15 -20 -126 -128 0
20 9 14 129 130 0
20 9 14 129 -130 0
20 9 14 -129 131 0
20 9 14 -129 -131 0
4 -14 11 132 133 0
4 -14 11 132 -133 0
4 -14 11 -132 134 0
4 -14 11 -132 -134 0
2 -18 4 135 136 0
2 -18 4 135 -136 0
2 -18 4 -135 137 0
2 -18 4 -135 -137 0
15 2 -19 138 139 0
15 2 -19 138 -139 0
15 2 -19 -138 140 0
15 2 -19 -138 -140 0
-1 6 8 141 142 0
-1 6 8 141 -142 0
-1 6 8 -141 143 0
-1 6 8 -141 -143 0
14 -8 17 144 145 0
14 -8 17 144 -145 0
14 -8 17 -144 146 0
14 -8 17 -144 -146 0
10 -20 -19 147 148 0
10 -20 -19 147 -148 0
10 -20 -19 -147 149 0
10 -20 -19 -147 -149 0
3 1 12 150 151 0
3 1 12 150 -151 0
3 1 12 -150 152 0
3 1 12 -150 -152 0
-12 -4 11 153 154 0
-12 -4 11 153 -154 0
-12 -4 11 -153 155 0
-12 -4 11 -153 -155 0
-13 17 -11 156 157 0
-13 17 -11 156 -157 0
-13 17 -11 -156 158 0
-13 17 -11 -156 -158 0
-7 12 15 159 160 0
-7 12 15 159 -160 0
-7 12 15 -159 161 0
-7 12 15 -159 -161 0
3 7 -19 162 163 0
3 7 -19 162 -163 0
3 7 -19 -162 164 0
3 7 -19 -162 -164 0
-6 -8 5 165 166 0
-6 -8 5 165 -166 0
-6 -8 5 -165 167 0
-6 -8 5 -165 -167 0
-4 -19 10 168 169 0
-4 -19 10 168 -169 0
-4 -19 10 -168 170 0
-4 -19 10 -168 -170 0
17 -5 18 171 172 0
17 -5 18 171 -172 0
17 -5 18 -171 173 0
17 -5 18 -171 -173 0
7 -3 -12 174 175 0
7 -3 -12 174 -175 0
7 -3 -12 -174 176 0
7 -3 -12 -174 -176 0
2 19 -6 177 178 0
2 19 -6 177 -178 0
2 19 -6 -177 179 0
2 19 -6 -177 -179 0
-14 -9 -19 180 181 0
-14 -9 -19 180 -181 0
-14 -9 -19 -180 182 0
-14 -9 -19 -180 -182 0
-5 -4 13 183 184 0
-5 -4 13 183 -184 0
-5 -4 13 -183 185 0
-5 -4 13 -183 -185 0
-16 14 9 186 187 0
-16 14 9 186 -187 0
-16 14 9 -186 188 0
-16 14 9 -186 -188 0
14 7 9 189 190 0
14 7 9 189 -190 0
14 7 9 -189 191 0
14 7 9 -189 -191 0
5 10 4 192 193 0
5 10 4 192 -193 0
5 10 4 -192 194 0
5 10 4 -192 -194 0
-2 3 -14 195 196 0
-2 3 -14 195 -196 0
-2 3 -14 -195 197 0
-2 3 -14 -195 -197 0
14 7 -18 198 199 0
14 7 -18 198 -199 0
14 7 -18 -198 200 0
14 7 -18 -198 -200 0
-11 17 7 201 202 0
-11 17 7 201 -202 0
-11 17 7 -201 203 0
-11 17 7 -201 -203 0
-5 3 15 204 205 0
-5 3 15 204 -205 0
-5 3 15 -204 206 0
-5 3 15 -204 -206 0
-17 14 12 207 208 0
-17 14 12 207 -208 0
-17 14 12 -207 209 0
-17 14 12 -207 -209 0
6 4 -20 210 211 0
6 4 -20 210 -211 0
6 4 -20 -210 212 0
6 4 -20 -210 -212 0
17 -12 11 213 214 0
17 -12 11 213 -214 0
17 -12 11 -213 215 0
17 -12 11 -213 -215 0
-14 -8 -11 216 217 0
-14 -8 -11 216 -217 0
-14 -8 -11 -216 218 0
-14 -8 -11 -216 -218 0
17 20 -14 219 220 0
17 20 -14 219 -220 0
17 20 -14 -219 221 0
17 20 -14 -219 -221 0
6 1 8 222 223 0
6 1 8 222 -223 0
6 1 8 -222 224 0
6 1 8 -222 -224 0
-11 -8 -12 225 226 0
-11 -8 -12 225 -226 0
-11 -8 -12 -225 227 0
-11 -8 -12 -225 -227 0
-4 -8 -14 228 229 0
-4 -8 -14 228 -229 0
-4 -8 -14 -228 230 0
-4 -8 -14 -228 -230 0
-5 8 9 231 232 0
-5 8 9 231 -232 0
-5 8 9 -231 233 0
-5 8 9 -231 -233 0
14 -4 -20 234 235 0
14 -4 -20 234 -235 0
14 -4 -20 -234 236 0
14 -4 -20 -234 -236 0
-8 -12 3 237 238 0
-8 -12 3 237 -238 0
-8 -12 3 -237 239 0
-8 -12 3 -237 -239 0
-4 -3 -2 240 241 0
-4 -3 -2 240 -241 0
-4 -3 -2 -240 242 0
-4 -3 -2 -240 -242 0
-17 -1 7 243 244 0
-17 -1 7 243 -244 0
-17 -1 7 -243 245 0
-17 -1 7 -243 -245 0
-8 -15 -13 246 247 0
-8 -15 -13 246 -247 0
-8 -15 -13 -246 248 0
-8 -15 -13 -246 -248 0
3 5 -20 249 250 0
3 5 -20 249 -250 0
3 5 -20 -249 251 0
3 5 -20 -249 -251 0
-17 15 -2 252 253 0
-17 15 -2 252 -253 0
-17 15 -2 -252 254 0
-17 15 -2 -252 -254 0
-9 11 -1 255 256 0
-9 11 -1 255 -256 0
-9 11 -1 -255 257 0
-9 11 -1 -255 -257 0
-9 -2 14 258 259 0
-9 -2 14 258 -259 0
-9 -2 14 -258 260 0
-9 -2 14 -258 -260 0
-1 -20 13 261 262 0
-1 -20 13 261 -262 0
-1 -20 13 -261 263 0
-1 -20 13 -261 -263 0
-17 16 -8 264 265 0
-17 16 -8 264 -265 0
-17 16 -8 -264 266 0
-17 16 -8 -264 -266 0
-16 17 -1 267 268 0
-16 17 -1 267 -268 0
-16 17 -1 -267 269 0
-16 17 -1 -267 -269 0
-4 -15 -18 270 271 0
-4 -15 -18 270 -271 0
-4 -15 -18 -270 272 0
-4 -15 -18 -270 -272 0
-3 -20 5 273 274 0
-3 -20 5 273 -274 0
-3 -20 5 -273 275 0
-3 -20 5 -273 -275 0
18 11 -9 276 277 0
18 11 -9 276 -277 0
18 11 -9 -276 278 0
18 11 -9 -276 -278 0
19 3 -16 279 280 0
19 3 -16 279 -280 0
19 3 -16 -279 281 0
19 3 -16 -279 -281 0
5 -17 -14 282 283 0
5 -17 -14 282 -283 0
5 -17 -14 -282 284 0
5 -17 -14 -282 -284 0
-2 14 12 285 286 0
-2 14 12 285 -286 0
-2 14 12 -285 287 0
-2 14 12 -285 -287 0
10 15 7 288 289 0
10 15 7 288 -289 0
10 15 7 -288 290 0
10 15 7 -288 -290 0
-12 -14 -17 291 292 0
-12 -14 -17 291 -292 0
-12 -14 -17 -291 293 0
-12 -14 -17 -291 -293 0
294 295 297 301 309 0
294 295 297 301 -309 0
294 295 297 -301 310 0
294 295 297 -301 -310 0
294 295 -297 302 311 0
294 295 -297 302 -311 0
294 295 -297 -302 312 0
294 295 -297 -302 -312 0
294 -295 298 303 313 0
294 -295 298 303 -313 0
294 -295 298 -303 314 0
294 -295 298 -303 -314 0
294 -295 -298 304 315 0
294 -295 -298 304 -315 0
294 -295 -298 -304 316 0
294 -295 -298 -304 -316 0
-294 296 299 305 317 0
-294 296 299 305 -317 0
-294 296 299 -305 318 0
-294 296 299 -305 -318 0
-294 296 -299 306 319 0
-294 296 -299 306 -319 0
-294 296 -299 -306 320 0
-294 296 -299 -306 -320 0
-294 -296 300 307 321 0
-294 -296 300 307 -321 0
-294 -296 300 -307 322 0
-294 -296 300 -307 -322 0
-294 -296 -300 308 323 0
-294 -296 -300 308 -323 0
-294 -296 -300 -308 324 0
-294 -296 -300 -308 -324 0
325 326 328 332 340 0
325 326 328 332 -340 0
325 326 328 -332 341 0
325 326 328 -332 -341 0
325 326 -328 333 342 0
325 326 -328 333 -342 0
325 326 -328 -333 343 0
325 326 -328 -333 -343 0
325 -326 329 334 344 0
325 -326 329 334 -344 0
325 -326 329 -334 345 0
325 -326 329 -334 -345 0
325 -326 -329 335 346 0
325 -326 -329 335 -346 0
325 -326 -329 -335 347 0
325 -326 -329 -335 -347 0
-325 327 330 336 348 0
-325 327 330 336 -348 0
-325 327 330 -336 349 0
-325 327 330 -336 -349 0
-325 327 -330 337 350 0
-325 327 -330 337 -350 0
-325 327 -330 -337 351 0
-325 327 -330 -337 -351 0
-325 -327 331 338 352 0
-325 -327 331 338 -352 0
-325 -327 331 -338 353 0
-325 -327 331 -338 -353 0
-325 -327 -331 339 354 0
-325 -327 -331 339 -354 0
-325 -327 -331 -339 355 0
-325 -327 -331 -339 -355 0
356 357 359 363 371 0
356 357 359 363 -371 0
356 357 359 -363 372 0
356 357 359 -363 -372 0
356 357 -359 364 373 0
356 357 -359 364 -373 0
356 357 -359 -364 374 0
356 357 -359 -364 -374 0
356 -357 360 365 375 0
356 -357 360 365 -375 0
356 -357 360 -365 376 0
356 -357 360 -365 -376 0
356 -357 -360 366 377 0
356 -357 -360 366 -377 0
356 -357 -360 -366 378 0
356 -357 -360 -366 -378 0
-356 358 361 367 379 0
-356 358 361 367 -379 0
-356 358 361 -367 380 0
-356 358 361 -367 -380 0
-356 358 -361 368 381 0
-356 358 -361 368 -381 0
-356 358 -361 -368 382 0
-356 358 -361 -368 -382 0
-356 -358 362 369 383 0
-356 -358 362 369 -383 0
-356 -358 362 -369 384 0
-356 -358 362 -369 -384 0
-356 -358 -362 370 385 0
-356 -358 -362 370 -385 0
-356 -358 -362 -370 386 0
-356 -358 -362 -370 -386 0

